
******************************************************************************
This program contains Ipopt, a library for large-scale nonlinear optimization.
 Ipopt is released as open source code under the Eclipse Public License (EPL).
         For more information visit http://projects.coin-or.org/Ipopt
******************************************************************************

This is Ipopt version 3.12.6, running with linear solver ma57.

Number of nonzeros in equality constraint Jacobian...:        0
Number of nonzeros in inequality constraint Jacobian.:     6000
Number of nonzeros in Lagrangian Hessian.............:     2002

Total number of variables............................:     2002
                     variables with only lower bounds:        0
                variables with lower and upper bounds:        0
                     variables with only upper bounds:        0
Total number of equality constraints.................:        0
Total number of inequality constraints...............:     2000
        inequality constraints with only lower bounds:     2000
   inequality constraints with lower and upper bounds:        0
        inequality constraints with only upper bounds:        0

iter    objective    inf_pr   inf_du lg(mu)  ||d||  lg(rg) alpha_du alpha_pr  ls
   0  5.0581968e+02 0.00e+00 1.58e+00  -1.0 0.00e+00    -  0.00e+00 0.00e+00   0
   1  7.3202118e+01 3.58e-03 3.87e+00  -1.0 1.92e+00    -  1.00e+00 6.32e-01f  1
   2  1.8502016e+01 1.53e-03 1.46e+01  -1.0 6.82e-01    -  1.00e+00 5.72e-01h  1
   3  8.7993334e+00 6.43e-04 3.62e+01  -1.0 4.03e-01    -  1.00e+00 5.78e-01h  1
   4  7.9736857e+00 2.72e-04 8.70e+01  -1.0 2.91e-01    -  1.00e+00 5.76e-01h  1
   5  9.1061431e+00 1.13e-04 2.03e+02  -1.0 2.47e-01    -  1.00e+00 5.86e-01h  1
   6  1.1280941e+01 4.83e-05 5.13e+02  -1.0 2.30e-01    -  1.00e+00 5.71e-01h  1
   7  1.4745406e+01 2.05e-05 1.24e+03  -1.0 2.29e-01    -  1.00e+00 5.76e-01h  1
   8  1.9938531e+01 9.10e-06 3.26e+03  -1.0 2.37e-01    -  1.00e+00 5.58e-01h  1
   9  2.9070030e+01 3.77e-06 7.39e+03  -1.0 2.61e-01    -  1.00e+00 5.86e-01h  1
iter    objective    inf_pr   inf_du lg(mu)  ||d||  lg(rg) alpha_du alpha_pr  ls
  10  4.8376500e+01 1.26e-06 1.37e+04  -1.0 2.91e-01    -  1.00e+00 6.65e-01h  1
  11  1.0582193e+02 0.00e+00 1.00e-06  -1.0 2.38e-01    -  1.00e+00 1.00e+00h  1
  12  3.3940242e+01 0.00e+00 2.18e-11  -5.7 7.30e-01    -  1.00e+00 1.00e+00f  1
  13  1.5990495e+01 0.00e+00 2.18e-11  -5.7 3.58e-01    -  1.00e+00 1.00e+00f  1
  14  1.1447343e+01 0.00e+00 2.00e-11  -5.7 1.65e-01    -  1.00e+00 1.00e+00f  1
  15  1.0158555e+01 0.00e+00 1.27e+03  -5.7 6.70e-02    -  5.90e-01 1.00e+00f  1
  16  1.0069719e+01 0.00e+00 9.98e+02  -5.7 2.68e-02    -  2.34e-01 2.89e-01f  1
  17  1.0034544e+01 0.00e+00 5.43e+02  -5.7 2.39e-02    -  3.62e-01 1.48e-01f  1
  18  1.0012498e+01 0.00e+00 1.21e+02  -5.7 2.45e-02    -  5.99e-01 1.01e-01f  1
  19  9.9684854e+00 0.00e+00 1.92e+02  -5.7 2.72e-02    -  6.34e-01 2.09e-01f  1
iter    objective    inf_pr   inf_du lg(mu)  ||d||  lg(rg) alpha_du alpha_pr  ls
  20  9.9337519e+00 0.00e+00 3.19e+02  -5.7 2.59e-02    -  1.00e+00 2.01e-01f  1
  21  9.8209037e+00 0.00e+00 3.49e+01  -5.7 2.51e-02    -  3.60e-01 8.40e-01f  1
  22  9.7997987e+00 0.00e+00 7.40e+00  -5.7 5.97e-03    -  7.15e-01 1.00e+00f  1
  23  9.7995377e+00 0.00e+00 2.00e-11  -5.7 2.78e-03    -  1.00e+00 1.00e+00f  1
  24  9.7964712e+00 0.00e+00 4.92e+00  -8.6 1.90e-03    -  5.98e-01 9.98e-01f  1
  25  9.7964082e+00 0.00e+00 1.85e+00  -8.6 6.68e-04    -  6.69e-01 9.96e-01f  1
  26  9.7963850e+00 0.00e+00 1.51e+00  -8.6 2.89e-04    -  1.96e-01 5.89e-01f  1
  27  9.7963587e+00 0.00e+00 9.84e-01  -8.6 1.67e-04    -  3.71e-01 1.00e+00f  1
  28  9.7963507e+00 0.00e+00 6.33e-01  -8.6 1.20e-04    -  3.77e-01 1.00e+00f  1
  29  9.7963486e+00 0.00e+00 3.50e-01  -8.6 8.62e-05    -  4.56e-01 1.00e+00f  1
iter    objective    inf_pr   inf_du lg(mu)  ||d||  lg(rg) alpha_du alpha_pr  ls
  30  9.7963480e+00 0.00e+00 9.81e-02  -8.6 7.92e-05    -  7.20e-01 8.90e-01h  1
  31  9.7963478e+00 0.00e+00 1.59e-02  -8.6 2.59e-05    -  8.36e-01 1.00e+00f  1
  32  9.7963478e+00 0.00e+00 3.49e-12  -8.6 1.93e-05    -  1.00e+00 1.00e+00h  1

Number of Iterations....: 32

                                   (scaled)                 (unscaled)
Objective...............:   9.7963478143558653e+00    9.7963478143558653e+00
Dual infeasibility......:   3.4900277112726030e-12    3.4900277112726030e-12
Constraint violation....:   0.0000000000000000e+00    0.0000000000000000e+00
Complementarity.........:   3.5876063577097504e-09    3.5876063577097504e-09
Overall NLP error.......:   7.2280715144040334e-11    3.5876063577097504e-09


Number of objective function evaluations             = 33
Number of objective gradient evaluations             = 33
Number of equality constraint evaluations            = 0
Number of inequality constraint evaluations          = 33
Number of equality constraint Jacobian evaluations   = 0
Number of inequality constraint Jacobian evaluations = 33
Number of Lagrangian Hessian evaluations             = 32
Total CPU secs in IPOPT (w/o function evaluations)   =      0.110
Total CPU secs in NLP function evaluations           =      0.017

EXIT: Optimal Solution Found.

************************ CUTEst statistics ************************


 Package used            :  IPOPT
 Problem                 :  LISWET10  
 # variables             =            2002
 # constraints           =            2000
 # objective functions   =        0.6700000E+02
 # objective gradients   =        0.3400000E+02
 # objective Hessians    =        0.3300000E+02
 # Hessian-vector prdct  =        0.0000000E+00
 # constraints functions =        0.6800000E+02
 # constraints gradients =        0.3500000E+02
 # constraints Hessians  =        0.3300000E+02
 Exit code               =               0
 Final f                 =   0.9796348E+01
 Set up time             =            0.04 seconds
 Solve time              =            0.31 seconds


******************************************************************

System Time =       0.0879999995 s.
